* ENCODING=ISO-8859-1
NAME          CPLEX
ROWS
 N  obj1    
 G  c1      
 G  c2      
 G  c3      
 G  c4      
 G  c5      
 G  c6      
 G  c7      
 G  c8      
 G  c9      
 G  c10     
 G  c11     
 G  c12     
 G  c13     
 G  c14     
 G  c15     
 G  c16     
 G  c17     
 G  c18     
 G  c19     
 G  c20     
 G  c21     
 G  c22     
 G  c23     
 G  c24     
 G  c25     
 G  c26     
 G  c27     
 G  c28     
 G  c29     
 G  c30     
COLUMNS
    MARK0000  'MARKER'                 'INTORG'
    x1        obj1                            1
    x1        c1                            235
    x1        c2                            597
    x1        c10                           712
    x1        c13                           329
    x1        c14                           723
    x2        obj1                            1
    x2        c12                           770
    x2        c19                           350
    x2        c20                           423
    x3        obj1                            1
    x3        c5                            301
    x3        c6                            458
    x3        c10                           524
    x3        c13                           382
    x3        c30                           583
    x4        obj1                            1
    x4        c9                            826
    x4        c30                           980
    x5        obj1                            1
    x5        c1                            700
    x5        c11                           883
    x5        c22                           726
    x6        obj1                            1
    x6        c1                            651
    x6        c12                           900
    x6        c27                           189
    x7        obj1                            1
    x7        c9                           1000
    x7        c21                           491
    x7        c22                           378
    x7        c25                           284
    x8        obj1                            1
    x8        c8                            879
    x8        c15                           400
    x8        c27                           334
    x9        obj1                            1
    x9        c7                            205
    x9        c12                           446
    x9        c13                           827
    x10       obj1                            1
    x10       c5                            765
    x10       c7                            766
    x10       c8                            208
    x10       c15                           899
    x10       c21                           461
    x11       obj1                            1
    x11       c1                            719
    x11       c6                            818
    x11       c9                            504
    x11       c18                           728
    x12       obj1                            1
    x12       c4                            673
    x12       c9                            449
    x13       obj1                            1
    x13       c19                           773
    x13       c22                           260
    x13       c24                           936
    x14       obj1                            1
    x14       c6                            186
    x14       c8                            470
    x15       obj1                            1
    x15       c4                            317
    x15       c6                            467
    x15       c16                           787
    x15       c20                           761
    x15       c28                           405
    x16       obj1                            1
    x16       c2                            641
    x16       c7                            590
    x16       c24                           347
    x17       obj1                            1
    x17       c4                            710
    x17       c6                            814
    x17       c15                           703
    x17       c22                           758
    x17       c26                           153
    x18       obj1                            1
    x18       c2                            457
    x18       c12                           129
    x18       c23                           600
    x19       obj1                            1
    x19       c22                           106
    x19       c25                           119
    x20       obj1                            1
    x20       c9                            621
    x20       c17                           489
    x20       c24                           818
    x21       obj1                            1
    x21       c17                           893
    x21       c22                           755
    x22       obj1                            1
    x22       c8                            152
    x22       c9                            192
    x22       c13                           274
    x22       c14                           486
    x22       c18                           915
    x22       c20                           998
    x22       c23                           183
    x23       obj1                            1
    x23       c1                            239
    x23       c4                            905
    x23       c10                           156
    x23       c29                           703
    x24       obj1                            1
    x24       c4                            883
    x24       c5                            415
    x24       c13                           901
    x24       c14                           215
    x24       c16                           205
    x25       obj1                            1
    x25       c14                           418
    x25       c16                           280
    x25       c27                           278
    x26       obj1                            1
    x26       c3                            185
    x26       c10                           206
    x27       obj1                            1
    x27       c11                           485
    x27       c13                           347
    x27       c24                           323
    x27       c27                           911
    x28       obj1                            1
    x28       c2                            267
    x28       c10                           413
    x28       c18                           183
    x29       obj1                            1
    x29       c3                            303
    x29       c6                            515
    x30       obj1                            1
    x30       c12                           916
    x30       c15                           259
    x30       c25                           277
    x30       c29                           713
    x31       obj1                            1
    x31       c12                           360
    x31       c19                           804
    x31       c29                           162
    x32       obj1                            1
    x32       c4                            104
    x32       c27                           487
    x32       c28                           357
    x33       obj1                            1
    x33       c8                            957
    x33       c23                           558
    x33       c26                           204
    x34       obj1                            1
    x34       c4                            905
    x35       obj1                            1
    x35       c6                            958
    x35       c7                            881
    x35       c14                           763
    x35       c16                           363
    x35       c21                           327
    x35       c24                           918
    x36       obj1                            1
    x36       c20                           798
    x36       c29                           436
    x37       obj1                            1
    x37       c25                           902
    x37       c29                           795
    x38       obj1                            1
    x38       c1                            868
    x38       c11                           765
    x38       c26                           746
    x38       c27                           208
    x39       obj1                            1
    x39       c25                           201
    x39       c27                           639
    x39       c28                           711
    x40       obj1                            1
    x40       c12                           131
    x40       c14                           161
    x40       c16                           467
    x40       c21                           803
    x41       obj1                            1
    x41       c4                            213
    x41       c10                           892
    x41       c12                           744
    x41       c28                           815
    x41       c29                           400
    x42       obj1                            1
    x42       c6                            798
    x42       c27                           504
    x43       obj1                            1
    x43       c15                           190
    x43       c22                           300
    x44       obj1                            1
    x44       c20                           601
    x45       obj1                            1
    x46       obj1                            1
    x46       c1                            998
    x46       c25                           711
    x46       c28                           461
    x47       obj1                            1
    x47       c20                           478
    x47       c26                           158
    x48       obj1                            1
    x48       c2                            742
    x49       obj1                            1
    x49       c1                            781
    x49       c3                            690
    x49       c10                           176
    x49       c28                           230
    x49       c30                           883
    x50       obj1                            1
    x50       c9                            645
    x50       c10                           935
    x50       c13                           177
    x50       c15                           912
    x50       c20                           845
    x50       c21                           960
    x51       obj1                            1
    x52       obj1                            1
    x52       c8                            292
    x52       c21                           374
    x52       c28                           600
    x53       obj1                            1
    x53       c8                            251
    x53       c21                           685
    x53       c23                           530
    x54       obj1                            1
    x54       c11                           250
    x54       c17                           376
    x54       c20                           882
    x54       c25                           394
    x55       obj1                            1
    x56       obj1                            1
    x56       c1                            255
    x56       c13                           761
    x56       c25                           284
    x56       c26                           185
    x57       obj1                            1
    x57       c2                            813
    x58       obj1                            1
    x58       c6                            156
    x58       c9                            904
    x58       c21                           126
    x59       obj1                            1
    x59       c4                            714
    x59       c21                           155
    x60       obj1                            1
    x60       c12                           824
    x60       c20                           591
    MARK0001  'MARKER'                 'INTEND'
RHS
    rhs       c1                           2723
    rhs       c2                           1759
    rhs       c3                            589
    rhs       c4                           2712
    rhs       c5                            741
    rhs       c6                           2585
    rhs       c7                           1221
    rhs       c8                           1605
    rhs       c9                           2571
    rhs       c10                          2007
    rhs       c11                          1192
    rhs       c12                          2610
    rhs       c13                          1999
    rhs       c14                          1383
    rhs       c15                          1682
    rhs       c16                          1051
    rhs       c17                           879
    rhs       c18                           913
    rhs       c19                           964
    rhs       c20                          3189
    rhs       c21                          2191
    rhs       c22                          1642
    rhs       c23                           936
    rhs       c24                          1671
    rhs       c25                          1586
    rhs       c26                           723
    rhs       c27                          1775
    rhs       c28                          1790
    rhs       c29                          1605
    rhs       c30                          1223
BOUNDS
 LI bnd       x1        0
 LI bnd       x2        0
 LI bnd       x3        0
 LI bnd       x4        0
 LI bnd       x5        0
 LI bnd       x6        0
 LI bnd       x7        0
 LI bnd       x8        0
 LI bnd       x9        0
 LI bnd       x10       0
 LI bnd       x11       0
 LI bnd       x12       0
 LI bnd       x13       0
 LI bnd       x14       0
 LI bnd       x15       0
 LI bnd       x16       0
 LI bnd       x17       0
 LI bnd       x18       0
 LI bnd       x19       0
 LI bnd       x20       0
 LI bnd       x21       0
 LI bnd       x22       0
 LI bnd       x23       0
 LI bnd       x24       0
 LI bnd       x25       0
 LI bnd       x26       0
 LI bnd       x27       0
 LI bnd       x28       0
 LI bnd       x29       0
 LI bnd       x30       0
 LI bnd       x31       0
 LI bnd       x32       0
 LI bnd       x33       0
 LI bnd       x34       0
 LI bnd       x35       0
 LI bnd       x36       0
 LI bnd       x37       0
 LI bnd       x38       0
 LI bnd       x39       0
 LI bnd       x40       0
 LI bnd       x41       0
 LI bnd       x42       0
 LI bnd       x43       0
 LI bnd       x44       0
 LI bnd       x45       0
 LI bnd       x46       0
 LI bnd       x47       0
 LI bnd       x48       0
 LI bnd       x49       0
 LI bnd       x50       0
 LI bnd       x51       0
 LI bnd       x52       0
 LI bnd       x53       0
 LI bnd       x54       0
 LI bnd       x55       0
 LI bnd       x56       0
 LI bnd       x57       0
 LI bnd       x58       0
 LI bnd       x59       0
 LI bnd       x60       0
ENDATA
